c --- [ banner ] -------------------------------------------------------------
c 
c CaDiCaL Radically Simplified CDCL SAT Solver
c Copyright (c) 2016-2021 A. Biere, M. Fleury, N. Froleyks
c 
c Version 1.5.2 9c38a080b32c28d805e8e6ca21849856b0cda605
c g++ (Ubuntu 7.5.0-3ubuntu1~18.04) 7.5.0 -Wall -Wextra -O3 -DNDEBUG
c Wed Feb 16 23:15:36 EST 2022 Linux fac-vanhoeve01 5.4.0-99-generic x86_64
c 
c --- [ limit ] --------------------------------------------------------------
c 
c setting time limit to 600 seconds real time (due to '-t 600')
c setting conflict limit to 1000000000 conflicts (due to '1000000000')
c 
c --- [ parsing input ] ------------------------------------------------------
c 
c reading DIMACS file from 'ddfwcnfs/le450_25c.col_25.cnf'
c opening file to read 'ddfwcnfs/le450_25c.col_25.cnf'
c found 'p cnf 11250 382500' header
c parsed 382500 clauses in 0.19 seconds process time
c closing file 'ddfwcnfs/le450_25c.col_25.cnf'
c after reading 5398190 bytes 5.1 MB
c 
c --- [ options ] ------------------------------------------------------------
c 
c all options are set to their default value
c 
c --- [ solving ] ------------------------------------------------------------
c 
c time measured in process time since initialization
c 
c  seconds  reductions  redundant  irredundant
c         MB    restarts       trail       variables
c          level   conflicts       glue         remaining
c 
c *  0.19 36  0 0   0    0    0  0% 0 381875 10625 94%
c {  0.19 36  0 0   0    0    0  0% 0 381875 10625 94%
c -  0.26 37 24 1   0  301  152 18% 21 381875 10625 94%
c }  0.30 37 24 1   0 1000  570 18% 21 381875 10625 94%
c [  0.30 37  0 1   0 1000  570  0% 0 381875 10625 94%
c O  0.30 37 76 1   0 1003  573 38% 25 381875 10625 94%
c -  0.46 49 26 2   0 1251  685 21% 22 381875 10625 94%
c -  0.63 49 26 3   1 2675 1321 21% 23 381875 10625 94%
c ]  0.65 49 27 3   1 3000 1595 21% 23 381875 10625 94%
c {  0.65 49 24 3   1 3000 1595 18% 21 381875 10625 94%
c F  0.65 49 24 3   1 3004 1599 18% 21 381875 10625 94%
c -  0.81 49 25 4   1 4574 1675 20% 21 381875 10625 94%
c #  1.14 48 25 4  12 6008 2535 21% 21 381875 10625 94%
c -  1.27 48 28 5  12 6946 2025 21% 21 381875 10625 94%
c }  1.28 48 28 5  12 7000 2067 21% 21 381875 10625 94%
c [  1.28 48 27 5  12 7000 2067 21% 23 381875 10625 94%
c -  1.53 49 33 6  14 9794 2629 26% 27 381875 10625 94%
c I  1.55 49 33 6  14 10012 2794 26% 27 381875 10625 94%
c s  1.67 57 99 6  15 10337 3007 29% 30 381875 10625 94%
c e  2.37 58 99 6  15 10337   49 29% 30 260571 8419 75%
c 
c  seconds  reductions   redundant   irredundant
c         MB    restarts        trail       variables
c          level    conflicts       glue         remaining
c 
c s  2.53 60 99 6  15 10337   49 29% 30 260571 8419 75%
c ^  2.56 60 99 6  15 10337   49 29% 30 260571 8419 75%
c -  3.23 59 103 7  16 13120 2623 71% 44 260571 8419 75%
c ]  3.40 59 102 7  17 15001 4150 66% 47 260571 8419 75%
c {  3.40 59 28 7  17 15001 4150 29% 21 260571 8419 75%
c B  3.73 59 29 7  21 15013 4162 29% 21 260571 8419 75%
c -  3.99 66 33 8 228 16518 3240 29% 23 260571 8419 75%
c -  4.25 66 29 9 230 20341 3055 26% 23 260571 8419 75%
c W  4.47 66 30 9 272 21014 3410 27% 23 260571 8419 75%
c -  4.86 66 31 10 405 24588 3496 26% 24 260571 8419 75%
c F  5.05 66 30 10 444 28015 5471 26% 23 260571 8419 75%
c -  5.21 73 30 11 445 29260 3897 25% 23 260571 8419 75%
c s  5.61 73 29 11 445 30147 3847 25% 23 260571 8419 75%
c s  6.11 73 29 11 445 30147 3672 25% 23 260571 8419 75%
c ^  6.13 73 29 11 445 30147 3672 25% 23 260571 8419 75%
c }  6.19 73 29 11 445 31003 4216 25% 23 260571 8419 75%
c [  6.19 73 102 11 445 31003 4216 66% 47 260571 8419 75%
c -  6.50 73 83 12 446 34358 4235 48% 41 260571 8419 75%
c B  6.62 73 76 12 448 36016 5282 44% 39 260571 8419 75%
c -  7.26 73 144 13 451 39880 5876 51% 49 260571 8419 75%
c 
c  seconds   reductions     redundant   irredundant
c         MB      restarts         trail       variables
c           level     conflicts        glue         remaining
c 
c W  8.80 73 141 13 452 45020 10639 59% 60 260571 8419 75%
c -  9.12 60 140 14 452 45829 7136 60% 61 260571 8419 75%
c - 11.44 60 132 15 453 52203 8341 65% 67 260571 8419 75%
c O 12.29 60 129 15 454 55021 10904 67% 69 260571 8419 75%
c - 12.65 59 118 16 457 59000 8579 62% 64 260571 8419 75%
c s 12.77 59 116 16 458 59861 8818 61% 64 260571 8419 75%
c w 12.94 59 116 16 458 59861 8816 61% 64 260571 8419 75%
c s 13.37 59 116 16 458 59861 8729 61% 64 260571 8419 75%
c ^ 13.40 59 116 16 458 59861 8729 61% 64 260571 8419 75%
c ] 13.61 59 108 16 460 63003 11164 58% 60 260571 8419 75%
c { 13.61 59 29 16 460 63003 11164 25% 23 260571 8419 75%
c B 13.78 59 29 16 486 66022 12921 25% 23 260571 8419 75%
c - 13.88 68 29 17 535 66221 9394 25% 23 260571 8419 75%
c - 14.36 68 28 18 606 73869 6801 24% 23 260571 8419 75%
c W 15.27 68 28 18 707 78023 9438 23% 23 260571 8419 75%
c - 15.79 68 29 19 878 81939 6930 24% 23 260571 8419 75%
c - 16.35 74 28 20 895 90435 8146 23% 23 260571 8419 75%
c # 16.39 74 28 20 895 91025 8519 23% 23 260571 8419 75%
c - 16.99 74 27 21 904 99355 9097 22% 23 260571 8419 75%
c s 17.07 74 27 21 904 99478 8700 22% 23 260571 8419 75%
c 
c  seconds  reductions    redundant   irredundant
c         MB     restarts        trail       variables
c          level     conflicts       glue         remaining
c 
c w 17.23 74 27 21 904 99478 8691 22% 23 260571 8419 75%
c s 17.60 74 27 21 904 99478 8536 22% 23 260571 8419 75%
c ^ 17.63 74 27 21 904 99478 8536 22% 23 260571 8419 75%
c B 18.35 74 27 21 906 105026 12283 22% 22 260571 8419 75%
c - 18.63 74 27 22 958 108702 9468 22% 22 260571 8419 75%
c - 19.23 74 26 23 998 118471 7985 21% 22 260571 8419 75%
c W 19.83 74 26 23 1006 120027 8848 21% 22 260571 8419 75%
c } 20.21 74 26 23 1021 127004 12834 21% 22 260571 8419 75%
c [ 20.21 74 108 23 1021 127004 12834 58% 60 260571 8419 75%
c - 20.39 74 105 24 1021 128666 8029 56% 59 260571 8419 75%
c B 20.80 74 91 24 1026 136028 12783 49% 52 260571 8419 75%
c - 21.07 74 86 25 1028 139286 9345 47% 50 260571 8419 75%
c s 22.00 74 75 25 1029 148998 15684 41% 45 260571 8419 75%
c e 22.53 74 75 25 1029 148998 15683 41% 45 260579 8418 75%
c s 22.54 74 75 25 1029 148998 15585 41% 45 260579 8418 75%
c ^ 22.57 74 75 25 1029 148998 15585 41% 45 260579 8418 75%
c - 22.74 74 74 26 1029 150331 10507 40% 45 260579 8418 75%
c W 23.47 74 72 26 1030 153030 12293 39% 44 260579 8418 75%
c - 25.87 74 223 27 1030 161800 13476 44% 60 260579 8418 75%
c I 28.99 74 302 27 1033 171031 22146 49% 76 260579 8418 75%
c 
c  seconds   reductions       redundant   irredundant
c         MB      restarts           trail       variables
c           level      conflicts         glue         remaining
c 
c - 29.81 67 317 28 1035 173693 15941 50% 80 260579 8418 75%
c - 34.37 66 302 29 1042 186012 15527 55% 93 260579 8418 75%
c B 34.94 66 295 29 1044 190033 18722 56% 92 260579 8418 75%
c - 37.11 62 278 30 1045 198758 15156 58% 93 260579 8418 75%
c s 40.76 62 262 30 1051 208424 23755 61% 96 260579 8418 75%
c e 41.40 62 262 30 1051 208424 23753 61% 96 260589 8417 75%
c s 41.47 62 262 30 1051 208424 23724 61% 96 260589 8417 75%
c W 43.04 62 259 30 1052 210035 25051 61% 96 260589 8417 75%
c - 43.62 78 256 31 1052 211929 16992 62% 96 260589 8417 75%
c - 49.01 93 236 32 1059 225522 17080 64% 96 260589 8417 75%
c O 50.98 93 227 32 1060 231036 21826 65% 96 260589 8417 75%
c - 51.67 93 208 33 1061 239540 16702 62% 90 260589 8417 75%
c B 52.68 93 183 33 1062 253037 27061 57% 82 260589 8417 75%
c - 52.84 93 186 34 1062 253984 16758 58% 81 260589 8417 75%
c ] 52.91 93 189 34 1062 255004 17584 58% 81 260589 8417 75%
c { 52.91 93 26 34 1062 255004 17584 21% 22 260589 8417 75%
c - 54.16 93 28 35 1796 268851 15167 22% 23 260589 8417 75%
c F 54.95 93 27 35 1823 276038 19675 21% 22 260589 8417 75%
c s 55.28 93 27 35 1825 277758 16858 21% 22 260589 8417 75%
c s 55.76 93 27 35 1825 277758 15150 21% 22 260589 8417 75%
c 
c  seconds  reductions       redundant   irredundant
c         MB     restarts           trail       variables
c          level      conflicts         glue         remaining
c 
c - 56.30 93 27 36 1832 284144 14019 20% 22 260589 8417 75%
c - 57.44 93 27 37 1867 299861 14514 19% 22 260589 8417 75%
c B 57.46 93 27 37 1867 300039 14608 19% 22 260589 8417 75%
c - 58.85 93 27 38 2459 316002 13620 20% 22 260589 8417 75%
c W 60.67 93 27 38 2568 325041 18392 20% 22 260589 8417 75%
c - 61.61 58 27 39 2591 332568 12471 20% 22 260589 8417 75%
c - 62.69 67 26 40 2739 349560 12870 21% 22 260589 8417 75%
c # 62.78 67 26 40 2752 351045 13703 21% 22 260589 8417 75%
c - 63.91 76 26 41 3094 366977 13669 21% 22 260589 8417 75%
c B 64.62 76 26 41 3100 378046 21157 21% 22 260589 8417 75%
c - 65.31 76 26 42 3542 384819 15302 21% 22 260589 8417 75%
c - 67.20 76 27 43 4063 403085 14429 21% 23 260589 8417 75%
c W 69.04 76 27 43 4068 406048 16094 21% 23 260589 8417 75%
c - 70.19 76 27 44 4265 421776 15188 21% 23 260589 8417 75%
c F 71.01 76 26 44 4379 435050 22736 21% 22 260589 8417 75%
c - 71.45 76 26 45 4386 440895 15623 21% 22 260589 8417 75%
c - 73.19 77 26 46 4435 460435 16983 20% 22 260589 8417 75%
c B 73.52 77 26 46 4436 465051 19862 20% 22 260589 8417 75%
c - 74.56 77 26 47 4744 480401 18362 20% 22 260589 8417 75%
c W 77.25 77 26 47 4806 496054 27508 20% 22 260589 8417 75%
c 
c  seconds  reductions       redundant   irredundant
c         MB     restarts           trail       variables
c          level      conflicts         glue         remaining
c 
c - 77.68 77 25 48 4844 500793 16831 20% 22 260589 8417 75%
c } 78.27 77 25 48 4886 511005 22690 20% 21 260589 8417 75%
c [ 78.27 77 189 48 4886 511005 22690 58% 81 260589 8417 75%
c - 78.99 77 170 49 4886 521607 17821 53% 74 260589 8417 75%
c W 81.75 77 159 49 4886 528055 21661 50% 70 260589 8417 75%
c - 82.78 77 139 50 4889 542847 19157 45% 63 260589 8417 75%
c I 84.14 77 118 50 4900 561056 30959 40% 56 260589 8417 75%
c - 85.44 84 237 51 4900 564512 21334 41% 69 260589 8417 75%
c - 93.42 120 321 52 4909 586600 26452 47% 115 260589 8417 75%
c B 96.09 120 310 52 4915 595059 33920 49% 117 260589 8417 75%
c - 101.97 84 288 53 4917 609115 27634 53% 117 260589 8417 75%
c W 112.34 84 259 53 4923 630060 47232 58% 116 260589 8417 75%
c - 112.95 107 270 54 4924 632053 29843 58% 117 260589 8417 75%
c - 115.58 84 231 55 4932 655416 26252 55% 105 260589 8417 75%
c O 116.44 84 213 55 4939 666062 34056 52% 98 260589 8417 75%
c - 117.39 84 190 56 4946 679205 24104 48% 89 260589 8417 75%
c s 117.67 84 190 56 4946 679205 21477 48% 89 260589 8417 75%
c w 118.21 84 190 56 4946 679205 21466 48% 89 260589 8417 75%
c B 120.54 84 158 56 4948 703064 38038 43% 77 260589 8417 75%
c - 120.72 84 161 57 4948 703418 28462 44% 77 260589 8417 75%
c 
c  seconds     reductions       redundant   irredundant
c           MB      restarts           trail       variables
c             level      conflicts         glue         remaining
c 
c - 128.34 109 175 58 4949 728057 30399 51% 86 260589 8417 75%
c W 136.13 109 172 58 4950 741065 42734 54% 90 260589 8417 75%
c - 140.38 84 171 59 4950 753120 33108 56% 93 260589 8417 75%
c - 150.58 103 165 60 4950 778608 33016 61% 98 260589 8417 75%
c I 151.20 103 165 60 4950 780068 34370 61% 98 260589 8417 75%
c - 161.11 145 401 61 4950 804520 33744 63% 142 260589 8417 75%
c B 166.27 145 393 61 4959 820070 47809 64% 148 260589 8417 75%
c - 169.92 103 375 62 4965 830856 34325 65% 148 260589 8417 75%
c - 183.31 130 331 63 4977 857617 33323 69% 150 260589 8417 75%
c W 188.26 130 326 63 4979 861072 36151 69% 149 260589 8417 75%
c - 198.40 103 289 64 4981 884803 34385 71% 144 260589 8417 75%
c O 206.59 103 265 64 4990 903073 50318 73% 141 260589 8417 75%
c - 207.32 109 244 65 4995 912416 33876 68% 131 260589 8417 75%
c - 209.51 109 193 66 5008 940451 29170 57% 105 260589 8417 75%
c B 210.02 109 184 66 5010 946074 33374 55% 101 260589 8417 75%
c - 217.18 109 182 67 5012 968911 33384 60% 101 260589 8417 75%
c W 230.40 109 171 67 5013 990075 52340 64% 102 260589 8417 75%
c - 234.29 117 167 68 5013 997798 35754 65% 102 260589 8417 75%
c ] 245.90 117 158 68 5024 1023012 57832 69% 103 260589 8417 75%
c { 245.90 117 25 68 5024 1023012 57832 20% 21 260589 8417 75%
c 
c  seconds    reductions        redundant   irredundant
c           MB     restarts            trail       variables
c            level       conflicts         glue         remaining
c 
c - 246.47 117 25 69 5225 1027110 36098 20% 22 260589 8417 75%
c # 246.92 117 25 69 5279 1035076 40507 20% 22 260589 8417 75%
c - 248.90 117 25 70 5433 1056845 26246 20% 22 260589 8417 75%
c B 250.43 117 25 70 5745 1081077 40414 20% 21 260589 8417 75%
c - 250.93 117 25 71 6014 1087004 24366 20% 22 260589 8417 75%
c - 252.84 117 24 72 6465 1117588 21997 20% 22 260589 8417 75%
c W 257.95 117 24 72 6549 1128081 27683 20% 22 260589 8417 75%
c - 259.60 117 24 73 6753 1148597 23217 20% 22 260589 8417 75%
c s 259.73 117 24 73 6753 1148597 22217 20% 22 260589 8417 75%
c w 260.18 117 24 73 6753 1148597 22213 20% 22 260589 8417 75%
c F 262.43 117 24 73 7317 1176082 36494 21% 22 260589 8417 75%
c - 262.79 117 24 74 7339 1180032 24109 21% 22 260589 8417 75%
c - 264.90 117 24 75 7674 1211891 23899 21% 22 260589 8417 75%
c B 265.65 117 24 75 7866 1225084 30809 21% 22 260589 8417 75%
c - 266.85 117 24 76 8638 1244174 23563 21% 22 260589 8417 75%
c W 274.51 117 24 76 9051 1275085 40414 22% 22 260589 8417 75%
c - 274.75 117 24 77 9066 1276882 24752 22% 22 260589 8417 75%
c - 277.11 117 24 78 9397 1310015 25261 22% 22 260589 8417 75%
c # 278.23 117 24 78 9612 1326086 33439 22% 22 260589 8417 75%
c - 279.46 117 24 79 9745 1343573 25581 22% 22 260589 8417 75%
c 
c  seconds    reductions         redundant   irredundant
c           MB      restarts            trail       variables
c            level        conflicts         glue         remaining
c 
c - 281.89 117 24 80 10068 1377560 24888 22% 22 260589 8417 75%
c B 281.93 117 24 80 10073 1378088 25203 22% 22 260589 8417 75%
c - 284.24 117 23 81 10253 1411970 28142 20% 21 260589 8417 75%
c W 290.56 117 23 81 10270 1431091 39391 19% 20 260589 8417 75%
c - 291.63 117 22 82 10285 1446802 28085 18% 20 260589 8417 75%
c - 294.07 117 22 83 10457 1482059 29361 17% 19 260589 8417 75%
c F 294.29 117 22 83 10462 1485092 31100 17% 19 260589 8417 75%
c - 296.82 117 21 84 10528 1517744 31523 16% 19 260589 8417 75%
c B 298.33 117 21 84 10598 1540096 44851 16% 18 260589 8417 75%
c - 300.04 117 23 85 11275 1553850 33329 17% 19 260589 8417 75%
c - 302.62 117 24 86 12068 1590383 37044 16% 19 260589 8417 75%
c W 309.13 117 24 86 12109 1596097 40908 16% 19 260589 8417 75%
c - 311.78 117 22 87 12305 1627341 31747 16% 18 260589 8417 75%
c # 313.28 117 22 87 12427 1653098 46421 15% 18 260589 8417 75%
c - 314.00 117 21 88 12568 1664724 30090 15% 18 260589 8417 75%
c s 314.07 117 21 88 12568 1664724 25006 15% 18 260589 8417 75%
c w 314.51 117 21 88 12568 1664724 25002 15% 18 260589 8417 75%
c - 316.96 117 21 89 14117 1702530 25482 16% 18 260589 8417 75%
c B 317.48 117 21 89 14445 1711100 29344 17% 18 260589 8417 75%
c - 320.34 117 24 90 18399 1740760 25490 19% 20 260589 8417 75%
c 
c  seconds    reductions         redundant   irredundant
c           MB      restarts            trail       variables
c            level        conflicts         glue         remaining
c 
c W 328.34 117 24 90 20775 1770101 37213 20% 20 260589 8417 75%
c - 329.30 117 25 91 21119 1779417 24007 20% 21 260589 8417 75%
c - 331.69 117 24 92 21702 1818497 27764 20% 21 260589 8417 75%
c F 332.43 117 24 92 21813 1830104 33634 20% 21 260589 8417 75%
c - 334.25 117 24 93 21987 1858002 31569 20% 21 260589 8417 75%
c B 336.97 117 23 93 22382 1891108 49813 20% 20 260589 8417 75%
c - 337.97 117 24 94 23215 1897934 31071 21% 21 260589 8417 75%
c - 340.73 117 25 95 24103 1938288 34509 20% 21 260589 8417 75%
c W 349.08 117 25 95 24435 1953109 41712 20% 21 260589 8417 75%
c - 351.13 117 24 96 24720 1979068 30933 20% 21 260589 8417 75%
c # 353.46 117 24 96 25317 2016111 49899 20% 21 260589 8417 75%
c - 353.82 117 24 97 25349 2020273 30114 20% 21 260589 8417 75%
c } 355.75 117 23 97 25653 2047013 44456 20% 21 260589 8417 75%
c [ 355.75 117 158 97 25653 2047013 44456 69% 103 260589 8417 75%
c - 356.78 117 140 98 25657 2061902 31579 62% 92 260589 8417 75%
c I 358.26 117 122 98 25668 2080114 43666 54% 81 260589 8417 75%
c - 367.00 117 155 99 25673 2103956 44572 59% 98 260589 8417 75%
c B 385.70 117 158 99 25688 2145115 82605 66% 109 260589 8417 75%
c - 386.65 100 157 100 25689 2146436 52512 67% 109 260589 8417 75%
c - 409.70 94 144 101 25704 2189339 52671 71% 107 260589 8417 75%
c 
c  seconds     reductions         redundant    irredundant
c          MB        restarts            trail        variables
c            level         conflicts          glue         remaining
c 
c W 427.56 94 138 101 25705 2211117 70102 73% 105 260589 8417 75%
c - 432.17 95 280 102 25706 2232667 52104 71% 113 260589 8417 75%
c s 432.37 99 280 102 25706 2232667 49501 71% 113 260589 8417 75%
c w 432.94 99 280 102 25706 2232667 49489 71% 113 260589 8417 75%
c - 449.81 101 230 103 25706 2276420 56920 72% 110 260589 8417 75%
c O 450.52 101 229 103 25706 2278118 58467 72% 110 260589 8417 75%
c - 454.72 81 169 104 25707 2320597 49728 60% 87 260589 8417 75%
c B 458.59 81 143 104 25707 2346119 68856 54% 78 260589 8417 75%
c - 465.37 113 378 105 25707 2365200 52923 58% 102 260589 8417 75%
c - 483.93 134 779 106 25707 2410228 58126 65% 141 260589 8417 75%
c W 496.55 134 813 106 25707 2415120 62737 66% 148 260589 8417 75%
c - 510.63 120 593 107 25722 2455680 60422 68% 136 260589 8417 75%
c I 525.09 120 476 107 25736 2485123 86793 71% 129 260589 8417 75%
c - 529.72 120 489 108 25738 2501556 58094 69% 140 260589 8417 75%
c - 546.54 122 387 109 25756 2547858 57637 71% 144 260589 8417 75%
c B 550.94 122 373 109 25760 2556125 65063 71% 145 260589 8417 75%
c - 565.80 121 311 110 25770 2594584 60290 73% 139 260589 8417 75%
c W 592.69 121 267 110 25771 2628127 90784 74% 136 260589 8417 75%
c ] 599.88 121 252 110 25777 2639228 99683 74% 133 260589 8417 75%
c ? 599.88 121 252 110 25777 2639228 99683 74% 133 260589 8417 75%
c 
c --- [ result ] -------------------------------------------------------------
c 
c UNKNOWN
c 
c --- [ run-time profiling ] -------------------------------------------------
c 
c process time taken by individual solving procedures
c (percentage relative to process time for solving)
c 
c       576.26   96.09% search
c       398.13   66.39% stable
c        95.30   15.89% unstable
c        82.82   13.81% walk
c        23.44    3.91% simplify
c        10.52    1.76% probe
c         2.84    0.47% vivify
c         2.08    0.35% elim
c         1.92    0.32% ternary
c         1.71    0.28% subsume
c         0.19    0.03% parse
c         0.01    0.00% lucky
c   =================================
c       599.69   99.97% solve
c 
c last line shows process time for solving
c (percentage relative to total process time)
c 
c --- [ statistics ] ---------------------------------------------------------
c 
c chronological:            423071        16.03 %  of conflicts
c conflicts:               2639228      4400.96    per second
c decisions:               3466273      5780.07    per second
c eliminated:                 2208        19.63 %  of all variables
c fixed:                       625         5.56 %  of all variables
c learned:                 2609671        98.88 %  per conflict
c learned_lits:          447568111       100.00 %  learned literals
c minimized:                     0         0.00 %  learned literals
c shrunken:              206633153        46.17 %  learned literals
c minishrunken:           23082153         5.16 %  learned literals
c propagations:          666495573         1.11 M  per second
c reduced:                 1757523        66.59 %  per conflict
c rephased:                     72     36655.94    interval
c restarts:                  25777       102.39    interval
c stabilizing:                   6        48.28 %  of conflicts
c subsumed:                 749451        12.44 %  of all clauses
c strengthened:              36558         0.61 %  of all clauses
c vivified:                    215         0.00 %  of all clauses
c walked:                       23    114749.04    interval
c weakened:                 142475         2.45    average size
c 
c seconds are measured in process time for solving
c 
c --- [ resources ] ----------------------------------------------------------
c 
c total process time since initialization:       599.88    seconds
c total real time since initialization:          600.01    seconds
c maximum resident set size of process:          172.79    MB
c 
c --- [ shutting down ] ------------------------------------------------------
c 
c exit 0
